bb.lp
\ LP format - for model browsing. Use MPS format to capture full model detail.
Maximize
  655 z0_13 + 635 z0_2 + 610 z0_12 + 510 z0_1 + 490 z0_8 + 480 z0_14
   + 450 z0_17 + 385 z0_4 + 380 z0_20 + 370 z0_9 + 265 z0_15 + 255 z0_16
   + 240 z0_19 + 170 z0_18 + 155 z0_10 + 155 z0_5 + 130 z0_7 + 110 z0_6
   + 91 z0_3 + 68 z0_11 + 605 z1_8 + 585 z1_4 + 500 z1_7 + 480 z1_15
   + 480 z1_6 + 475 z1_5 + 445 z1_18 + 440 z1_16 + 440 z1_11 + 415 z1_3
   + 380 z1_10 + 360 z1_12 + 355 z1_2 + 320 z1_9 + 290 z1_19 + 270 z1_17
   + 235 z1_13 + 140 z1_20 + 81 z1_14 + 755 z2_16 + 750 z2_18 + 705 z2_12
   + 700 z2_9 + 640 z2_10 + 625 z2_17 + 605 z2_3 + 590 z2_19 + 585 z2_13
   + 575 z2_11 + 570 z2_6 + 540 z2_7 + 495 z2_20 + 495 z2_5 + 435 z2_14
   + 420 z2_15 + 390 z2_4 + 295 z2_8 + 555 z3_13 + 520 z3_12 + 460 z3_8
   + 380 z3_14 + 350 z3_4 + 345 z3_17 + 280 z3_20 + 280 z3_9 + 235 z3_16
   + 235 z3_15 + 160 z3_18 + 140 z3_19 + 120 z3_5 + 97 z3_7 + 78 z3_6
   + 63 z3_10 + 27 z3_11 + 835 z4_12 + 750 z4_13 + 660 z4_17 + 650 z4_16
   + 590 z4_9 + 575 z4_14 + 495 z4_18 + 480 z4_20 + 480 z4_19 + 430 z4_10
   + 320 z4_11 + 320 z4_6 + 285 z4_7 + 240 z4_5 + 125 z4_15 + 120 z4_8
   + 615 z5_13 + 605 z5_12 + 440 z5_14 + 430 z5_17 + 370 z5_16 + 365 z5_9
   + 350 z5_8 + 340 z5_20 + 265 z5_18 + 255 z5_19 + 200 z5_10 + 125 z5_15
   + 96 z5_6 + 91 z5_11 + 36 z5_7 + 625 z6_13 + 590 z6_12 + 455 z6_14
   + 425 z6_8 + 420 z6_17 + 350 z6_20 + 350 z6_9 + 320 z6_16 + 220 z6_18
   + 205 z6_19 + 200 z6_15 + 160 z6_10 + 48 z6_11 + 29 z6_7 + 645 z7_13
   + 610 z7_12 + 465 z7_14 + 440 z7_17 + 390 z7_8 + 370 z7_20 + 370 z7_9
   + 350 z7_16 + 240 z7_18 + 220 z7_19 + 175 z7_10 + 165 z7_15 + 67 z7_11
   + 865 z8_12 + 775 z8_13 + 690 z8_17 + 680 z8_16 + 625 z8_9 + 600 z8_18
   + 600 z8_14 + 535 z8_10 + 515 z8_19 + 505 z8_20 + 430 z8_11 + 230 z8_15
   + 475 z9_15 + 300 z9_11 + 285 z9_13 + 250 z9_12 + 245 z9_14 + 240 z9_10
   + 235 z9_18 + 185 z9_20 + 150 z9_19 + 150 z9_16 + 77 z9_17 + 515 z10_13
   + 480 z10_12 + 345 z10_14 + 310 z10_17 + 310 z10_15 + 240 z10_20
   + 175 z10_16 + 125 z10_18 + 100 z10_19 + 90 z10_11 + 585 z11_13
   + 545 z11_12 + 415 z11_14 + 380 z11_17 + 310 z11_20 + 265 z11_16
   + 205 z11_15 + 170 z11_19 + 170 z11_18 + 715 z12_15 + 485 z12_18
   + 400 z12_16 + 390 z12_19 + 345 z12_20 + 295 z12_14 + 190 z12_13
   + 180 z12_17 + 650 z13_15 + 525 z13_18 + 435 z13_16 + 425 z13_19
   + 280 z13_20 + 215 z13_17 + 170 z13_14 + 475 z14_15 + 405 z14_18
   + 385 z14_16 + 255 z14_19 + 190 z14_17 + 105 z14_20 + 545 z15_17
   + 485 z15_16 + 395 z15_19 + 380 z15_20 + 375 z15_18 + 280 z16_20
   + 225 z16_17 + 205 z16_19 + 87 z16_18 + 315 z17_18 + 220 z17_19
   + 165 z17_20 + 305 z18_20 + 155 z18_19 + 150 z19_20
Subject To
 partition_0: - x8 - x20 + z8_20 <= 0
 fancy_0: x8 + x20 + z8_20 <= 2
 partition_1: - x1 - x7 + z1_7 <= 0
 fancy_1: x1 + x7 + z1_7 <= 2
 partition_2: - x1 - x6 + z1_6 <= 0
 fancy_2: x1 + x6 + z1_6 <= 2
 partition_3: - x1 - x5 + z1_5 <= 0
 fancy_3: x1 + x5 + z1_5 <= 2
 partition_4: - x1 - x4 + z1_4 <= 0
 fancy_4: x1 + x4 + z1_4 <= 2
 partition_5: - x1 - x3 + z1_3 <= 0
 fancy_5: x1 + x3 + z1_3 <= 2
 partition_6: - x1 - x2 + z1_2 <= 0
 fancy_6: x1 + x2 + z1_2 <= 2
 partition_7: - x0 - x8 + z0_8 <= 0
 fancy_7: x0 + x8 + z0_8 <= 2
 partition_8: - x0 - x9 + z0_9 <= 0
 fancy_8: x0 + x9 + z0_9 <= 2
 partition_9: - x0 - x6 + z0_6 <= 0
 fancy_9: x0 + x6 + z0_6 <= 2
 partition_10: - x0 - x7 + z0_7 <= 0
 fancy_10: x0 + x7 + z0_7 <= 2
 partition_11: - x0 - x4 + z0_4 <= 0
 fancy_11: x0 + x4 + z0_4 <= 2
 partition_12: - x0 - x5 + z0_5 <= 0
 fancy_12: x0 + x5 + z0_5 <= 2
 partition_13: - x0 - x2 + z0_2 <= 0
 fancy_13: x0 + x2 + z0_2 <= 2
 partition_14: - x3 - x10 + z3_10 <= 0
 fancy_14: x3 + x10 + z3_10 <= 2
 partition_15: - x1 - x9 + z1_9 <= 0
 fancy_15: x1 + x9 + z1_9 <= 2
 partition_16: - x1 - x8 + z1_8 <= 0
 fancy_16: x1 + x8 + z1_8 <= 2
 partition_17: - x6 - x16 + z6_16 <= 0
 fancy_17: x6 + x16 + z6_16 <= 2
 partition_18: - x6 - x17 + z6_17 <= 0
 fancy_18: x6 + x17 + z6_17 <= 2
 partition_19: - x6 - x14 + z6_14 <= 0
 fancy_19: x6 + x14 + z6_14 <= 2
 partition_20: - x6 - x15 + z6_15 <= 0
 fancy_20: x6 + x15 + z6_15 <= 2
 partition_21: - x6 - x12 + z6_12 <= 0
 fancy_21: x6 + x12 + z6_12 <= 2
 partition_22: - x6 - x13 + z6_13 <= 0
 fancy_22: x6 + x13 + z6_13 <= 2
 partition_23: - x6 - x10 + z6_10 <= 0
 fancy_23: x6 + x10 + z6_10 <= 2
 partition_24: - x6 - x11 + z6_11 <= 0
 fancy_24: x6 + x11 + z6_11 <= 2
 partition_25: - x0 - x20 + z0_20 <= 0
 fancy_25: x0 + x20 + z0_20 <= 2
 partition_26: - x6 - x18 + z6_18 <= 0
 fancy_26: x6 + x18 + z6_18 <= 2
 partition_27: - x6 - x19 + z6_19 <= 0
 fancy_27: x6 + x19 + z6_19 <= 2
 partition_28: - x4 - x8 + z4_8 <= 0
 fancy_28: x4 + x8 + z4_8 <= 2
 partition_29: - x4 - x9 + z4_9 <= 0
 fancy_29: x4 + x9 + z4_9 <= 2
 partition_30: - x5 - x7 + z5_7 <= 0
 fancy_30: x5 + x7 + z5_7 <= 2
 partition_31: - x5 - x6 + z5_6 <= 0
 fancy_31: x5 + x6 + z5_6 <= 2
 partition_32: - x5 - x9 + z5_9 <= 0
 fancy_32: x5 + x9 + z5_9 <= 2
 partition_33: - x5 - x8 + z5_8 <= 0
 fancy_33: x5 + x8 + z5_8 <= 2
 partition_34: - x4 - x6 + z4_6 <= 0
 fancy_34: x4 + x6 + z4_6 <= 2
 partition_35: - x4 - x7 + z4_7 <= 0
 fancy_35: x4 + x7 + z4_7 <= 2
 partition_36: - x4 - x5 + z4_5 <= 0
 fancy_36: x4 + x5 + z4_5 <= 2
 partition_37: - x10 - x11 + z10_11 <= 0
 fancy_37: x10 + x11 + z10_11 <= 2
 partition_38: - x16 - x17 + z16_17 <= 0
 fancy_38: x16 + x17 + z16_17 <= 2
 partition_39: - x13 - x15 + z13_15 <= 0
 fancy_39: x13 + x15 + z13_15 <= 2
 partition_40: - x16 - x18 + z16_18 <= 0
 fancy_40: x16 + x18 + z16_18 <= 2
 partition_41: - x17 - x20 + z17_20 <= 0
 fancy_41: x17 + x20 + z17_20 <= 2
 partition_42: - x11 - x20 + z11_20 <= 0
 fancy_42: x11 + x20 + z11_20 <= 2
 partition_43: - x3 - x19 + z3_19 <= 0
 fancy_43: x3 + x19 + z3_19 <= 2
 partition_44: - x3 - x18 + z3_18 <= 0
 fancy_44: x3 + x18 + z3_18 <= 2
 partition_45: - x8 - x18 + z8_18 <= 0
 fancy_45: x8 + x18 + z8_18 <= 2
 partition_46: - x8 - x19 + z8_19 <= 0
 fancy_46: x8 + x19 + z8_19 <= 2
 partition_47: - x13 - x17 + z13_17 <= 0
 fancy_47: x13 + x17 + z13_17 <= 2
 partition_48: - x10 - x20 + z10_20 <= 0
 fancy_48: x10 + x20 + z10_20 <= 2
 partition_49: - x19 - x20 + z19_20 <= 0
 fancy_49: x19 + x20 + z19_20 <= 2
 partition_50: - x8 - x10 + z8_10 <= 0
 fancy_50: x8 + x10 + z8_10 <= 2
 partition_51: - x8 - x11 + z8_11 <= 0
 fancy_51: x8 + x11 + z8_11 <= 2
 partition_52: - x8 - x12 + z8_12 <= 0
 fancy_52: x8 + x12 + z8_12 <= 2
 partition_53: - x8 - x13 + z8_13 <= 0
 fancy_53: x8 + x13 + z8_13 <= 2
 partition_54: - x8 - x14 + z8_14 <= 0
 fancy_54: x8 + x14 + z8_14 <= 2
 partition_55: - x8 - x15 + z8_15 <= 0
 fancy_55: x8 + x15 + z8_15 <= 2
 partition_56: - x8 - x16 + z8_16 <= 0
 fancy_56: x8 + x16 + z8_16 <= 2
 partition_57: - x8 - x17 + z8_17 <= 0
 fancy_57: x8 + x17 + z8_17 <= 2
 partition_58: - x16 - x19 + z16_19 <= 0
 fancy_58: x16 + x19 + z16_19 <= 2
 partition_59: - x3 - x15 + z3_15 <= 0
 fancy_59: x3 + x15 + z3_15 <= 2
 partition_60: - x4 - x18 + z4_18 <= 0
 fancy_60: x4 + x18 + z4_18 <= 2
 partition_61: - x4 - x19 + z4_19 <= 0
 fancy_61: x4 + x19 + z4_19 <= 2
 partition_62: - x3 - x14 + z3_14 <= 0
 fancy_62: x3 + x14 + z3_14 <= 2
 partition_63: - x4 - x14 + z4_14 <= 0
 fancy_63: x4 + x14 + z4_14 <= 2
 partition_64: - x4 - x15 + z4_15 <= 0
 fancy_64: x4 + x15 + z4_15 <= 2
 partition_65: - x4 - x16 + z4_16 <= 0
 fancy_65: x4 + x16 + z4_16 <= 2
 partition_66: - x4 - x17 + z4_17 <= 0
 fancy_66: x4 + x17 + z4_17 <= 2
 partition_67: - x4 - x10 + z4_10 <= 0
 fancy_67: x4 + x10 + z4_10 <= 2
 partition_68: - x4 - x11 + z4_11 <= 0
 fancy_68: x4 + x11 + z4_11 <= 2
 partition_69: - x4 - x12 + z4_12 <= 0
 fancy_69: x4 + x12 + z4_12 <= 2
 partition_70: - x4 - x13 + z4_13 <= 0
 fancy_70: x4 + x13 + z4_13 <= 2
 partition_71: - x7 - x19 + z7_19 <= 0
 fancy_71: x7 + x19 + z7_19 <= 2
 partition_72: - x7 - x18 + z7_18 <= 0
 fancy_72: x7 + x18 + z7_18 <= 2
 partition_73: - x3 - x16 + z3_16 <= 0
 fancy_73: x3 + x16 + z3_16 <= 2
 partition_74: - x7 - x11 + z7_11 <= 0
 fancy_74: x7 + x11 + z7_11 <= 2
 partition_75: - x3 - x11 + z3_11 <= 0
 fancy_75: x3 + x11 + z3_11 <= 2
 partition_76: - x7 - x13 + z7_13 <= 0
 fancy_76: x7 + x13 + z7_13 <= 2
 partition_77: - x7 - x12 + z7_12 <= 0
 fancy_77: x7 + x12 + z7_12 <= 2
 partition_78: - x7 - x15 + z7_15 <= 0
 fancy_78: x7 + x15 + z7_15 <= 2
 partition_79: - x7 - x14 + z7_14 <= 0
 fancy_79: x7 + x14 + z7_14 <= 2
 partition_80: - x7 - x17 + z7_17 <= 0
 fancy_80: x7 + x17 + z7_17 <= 2
 partition_81: - x0 - x3 + z0_3 <= 0
 fancy_81: x0 + x3 + z0_3 <= 2
 partition_82: - x3 - x17 + z3_17 <= 0
 fancy_82: x3 + x17 + z3_17 <= 2
 partition_83: - x3 - x13 + z3_13 <= 0
 fancy_83: x3 + x13 + z3_13 <= 2
 partition_84: - x0 - x1 + z0_1 <= 0
 fancy_84: x0 + x1 + z0_1 <= 2
 partition_85: - x14 - x17 + z14_17 <= 0
 fancy_85: x14 + x17 + z14_17 <= 2
 partition_86: - x13 - x16 + z13_16 <= 0
 fancy_86: x13 + x16 + z13_16 <= 2
 partition_87: - x18 - x20 + z18_20 <= 0
 fancy_87: x18 + x20 + z18_20 <= 2
 partition_88: - x14 - x20 + z14_20 <= 0
 fancy_88: x14 + x20 + z14_20 <= 2
 partition_89: - x12 - x15 + z12_15 <= 0
 fancy_89: x12 + x15 + z12_15 <= 2
 partition_90: - x13 - x20 + z13_20 <= 0
 fancy_90: x13 + x20 + z13_20 <= 2
 partition_91: - x5 - x17 + z5_17 <= 0
 fancy_91: x5 + x17 + z5_17 <= 2
 partition_92: - x5 - x16 + z5_16 <= 0
 fancy_92: x5 + x16 + z5_16 <= 2
 partition_93: - x5 - x15 + z5_15 <= 0
 fancy_93: x5 + x15 + z5_15 <= 2
 partition_94: - x5 - x14 + z5_14 <= 0
 fancy_94: x5 + x14 + z5_14 <= 2
 partition_95: - x5 - x13 + z5_13 <= 0
 fancy_95: x5 + x13 + z5_13 <= 2
 partition_96: - x5 - x12 + z5_12 <= 0
 fancy_96: x5 + x12 + z5_12 <= 2
 partition_97: - x5 - x11 + z5_11 <= 0
 fancy_97: x5 + x11 + z5_11 <= 2
 partition_98: - x5 - x10 + z5_10 <= 0
 fancy_98: x5 + x10 + z5_10 <= 2
 partition_99: - x15 - x20 + z15_20 <= 0
 fancy_99: x15 + x20 + z15_20 <= 2
 partition_100: - x12 - x20 + z12_20 <= 0
 fancy_100: x12 + x20 + z12_20 <= 2
 partition_101: - x5 - x19 + z5_19 <= 0
 fancy_101: x5 + x19 + z5_19 <= 2
 partition_102: - x5 - x18 + z5_18 <= 0
 fancy_102: x5 + x18 + z5_18 <= 2
 partition_103: - x18 - x19 + z18_19 <= 0
 fancy_103: x18 + x19 + z18_19 <= 2
 partition_104: - x13 - x18 + z13_18 <= 0
 fancy_104: x13 + x18 + z13_18 <= 2
 partition_105: - x15 - x17 + z15_17 <= 0
 fancy_105: x15 + x17 + z15_17 <= 2
 partition_106: - x15 - x16 + z15_16 <= 0
 fancy_106: x15 + x16 + z15_16 <= 2
 partition_107: - x15 - x19 + z15_19 <= 0
 fancy_107: x15 + x19 + z15_19 <= 2
 partition_108: - x15 - x18 + z15_18 <= 0
 fancy_108: x15 + x18 + z15_18 <= 2
 partition_109: - x2 - x8 + z2_8 <= 0
 fancy_109: x2 + x8 + z2_8 <= 2
 partition_110: - x2 - x9 + z2_9 <= 0
 fancy_110: x2 + x9 + z2_9 <= 2
 partition_111: - x5 - x20 + z5_20 <= 0
 fancy_111: x5 + x20 + z5_20 <= 2
 partition_112: - x3 - x5 + z3_5 <= 0
 fancy_112: x3 + x5 + z3_5 <= 2
 partition_113: - x3 - x4 + z3_4 <= 0
 fancy_113: x3 + x4 + z3_4 <= 2
 partition_114: - x3 - x7 + z3_7 <= 0
 fancy_114: x3 + x7 + z3_7 <= 2
 partition_115: - x3 - x6 + z3_6 <= 0
 fancy_115: x3 + x6 + z3_6 <= 2
 partition_116: - x3 - x9 + z3_9 <= 0
 fancy_116: x3 + x9 + z3_9 <= 2
 partition_117: - x3 - x8 + z3_8 <= 0
 fancy_117: x3 + x8 + z3_8 <= 2
 partition_118: - x2 - x3 + z2_3 <= 0
 fancy_118: x2 + x3 + z2_3 <= 2
 partition_119: - x2 - x4 + z2_4 <= 0
 fancy_119: x2 + x4 + z2_4 <= 2
 partition_120: - x2 - x5 + z2_5 <= 0
 fancy_120: x2 + x5 + z2_5 <= 2
 partition_121: - x2 - x6 + z2_6 <= 0
 fancy_121: x2 + x6 + z2_6 <= 2
 partition_122: - x2 - x7 + z2_7 <= 0
 fancy_122: x2 + x7 + z2_7 <= 2
 partition_123: - x17 - x18 + z17_18 <= 0
 fancy_123: x17 + x18 + z17_18 <= 2
 partition_124: - x1 - x19 + z1_19 <= 0
 fancy_124: x1 + x19 + z1_19 <= 2
 partition_125: - x1 - x18 + z1_18 <= 0
 fancy_125: x1 + x18 + z1_18 <= 2
 partition_126: - x10 - x18 + z10_18 <= 0
 fancy_126: x10 + x18 + z10_18 <= 2
 partition_127: - x4 - x20 + z4_20 <= 0
 fancy_127: x4 + x20 + z4_20 <= 2
 partition_128: - x3 - x12 + z3_12 <= 0
 fancy_128: x3 + x12 + z3_12 <= 2
 partition_129: - x1 - x12 + z1_12 <= 0
 fancy_129: x1 + x12 + z1_12 <= 2
 partition_130: - x1 - x11 + z1_11 <= 0
 fancy_130: x1 + x11 + z1_11 <= 2
 partition_131: - x1 - x10 + z1_10 <= 0
 fancy_131: x1 + x10 + z1_10 <= 2
 partition_132: - x1 - x17 + z1_17 <= 0
 fancy_132: x1 + x17 + z1_17 <= 2
 partition_133: - x1 - x16 + z1_16 <= 0
 fancy_133: x1 + x16 + z1_16 <= 2
 partition_134: - x1 - x15 + z1_15 <= 0
 fancy_134: x1 + x15 + z1_15 <= 2
 partition_135: - x1 - x14 + z1_14 <= 0
 fancy_135: x1 + x14 + z1_14 <= 2
 partition_136: - x16 - x20 + z16_20 <= 0
 fancy_136: x16 + x20 + z16_20 <= 2
 partition_137: - x3 - x20 + z3_20 <= 0
 fancy_137: x3 + x20 + z3_20 <= 2
 partition_138: - x0 - x10 + z0_10 <= 0
 fancy_138: x0 + x10 + z0_10 <= 2
 partition_139: - x0 - x11 + z0_11 <= 0
 fancy_139: x0 + x11 + z0_11 <= 2
 partition_140: - x0 - x12 + z0_12 <= 0
 fancy_140: x0 + x12 + z0_12 <= 2
 partition_141: - x0 - x13 + z0_13 <= 0
 fancy_141: x0 + x13 + z0_13 <= 2
 partition_142: - x0 - x14 + z0_14 <= 0
 fancy_142: x0 + x14 + z0_14 <= 2
 partition_143: - x0 - x15 + z0_15 <= 0
 fancy_143: x0 + x15 + z0_15 <= 2
 partition_144: - x0 - x16 + z0_16 <= 0
 fancy_144: x0 + x16 + z0_16 <= 2
 partition_145: - x0 - x17 + z0_17 <= 0
 fancy_145: x0 + x17 + z0_17 <= 2
 partition_146: - x0 - x18 + z0_18 <= 0
 fancy_146: x0 + x18 + z0_18 <= 2
 partition_147: - x0 - x19 + z0_19 <= 0
 fancy_147: x0 + x19 + z0_19 <= 2
 partition_148: - x9 - x13 + z9_13 <= 0
 fancy_148: x9 + x13 + z9_13 <= 2
 partition_149: - x9 - x12 + z9_12 <= 0
 fancy_149: x9 + x12 + z9_12 <= 2
 partition_150: - x9 - x11 + z9_11 <= 0
 fancy_150: x9 + x11 + z9_11 <= 2
 partition_151: - x9 - x10 + z9_10 <= 0
 fancy_151: x9 + x10 + z9_10 <= 2
 partition_152: - x9 - x17 + z9_17 <= 0
 fancy_152: x9 + x17 + z9_17 <= 2
 partition_153: - x9 - x16 + z9_16 <= 0
 fancy_153: x9 + x16 + z9_16 <= 2
 partition_154: - x9 - x15 + z9_15 <= 0
 fancy_154: x9 + x15 + z9_15 <= 2
 partition_155: - x9 - x14 + z9_14 <= 0
 fancy_155: x9 + x14 + z9_14 <= 2
 partition_156: - x10 - x14 + z10_14 <= 0
 fancy_156: x10 + x14 + z10_14 <= 2
 partition_157: - x9 - x19 + z9_19 <= 0
 fancy_157: x9 + x19 + z9_19 <= 2
 partition_158: - x9 - x18 + z9_18 <= 0
 fancy_158: x9 + x18 + z9_18 <= 2
 partition_159: - x7 - x16 + z7_16 <= 0
 fancy_159: x7 + x16 + z7_16 <= 2
 partition_160: - x6 - x7 + z6_7 <= 0
 fancy_160: x6 + x7 + z6_7 <= 2
 partition_161: - x6 - x8 + z6_8 <= 0
 fancy_161: x6 + x8 + z6_8 <= 2
 partition_162: - x6 - x9 + z6_9 <= 0
 fancy_162: x6 + x9 + z6_9 <= 2
 partition_163: - x2 - x20 + z2_20 <= 0
 fancy_163: x2 + x20 + z2_20 <= 2
 partition_164: - x14 - x18 + z14_18 <= 0
 fancy_164: x14 + x18 + z14_18 <= 2
 partition_165: - x14 - x19 + z14_19 <= 0
 fancy_165: x14 + x19 + z14_19 <= 2
 partition_166: - x7 - x9 + z7_9 <= 0
 fancy_166: x7 + x9 + z7_9 <= 2
 partition_167: - x7 - x8 + z7_8 <= 0
 fancy_167: x7 + x8 + z7_8 <= 2
 partition_168: - x17 - x19 + z17_19 <= 0
 fancy_168: x17 + x19 + z17_19 <= 2
 partition_169: - x14 - x15 + z14_15 <= 0
 fancy_169: x14 + x15 + z14_15 <= 2
 partition_170: - x14 - x16 + z14_16 <= 0
 fancy_170: x14 + x16 + z14_16 <= 2
 partition_171: - x10 - x19 + z10_19 <= 0
 fancy_171: x10 + x19 + z10_19 <= 2
 partition_172: - x12 - x18 + z12_18 <= 0
 fancy_172: x12 + x18 + z12_18 <= 2
 partition_173: - x13 - x19 + z13_19 <= 0
 fancy_173: x13 + x19 + z13_19 <= 2
 partition_174: - x1 - x13 + z1_13 <= 0
 fancy_174: x1 + x13 + z1_13 <= 2
 partition_175: - x12 - x19 + z12_19 <= 0
 fancy_175: x12 + x19 + z12_19 <= 2
 partition_176: - x10 - x15 + z10_15 <= 0
 fancy_176: x10 + x15 + z10_15 <= 2
 partition_177: - x10 - x17 + z10_17 <= 0
 fancy_177: x10 + x17 + z10_17 <= 2
 partition_178: - x8 - x9 + z8_9 <= 0
 fancy_178: x8 + x9 + z8_9 <= 2
 partition_179: - x10 - x16 + z10_16 <= 0
 fancy_179: x10 + x16 + z10_16 <= 2
 partition_180: - x9 - x20 + z9_20 <= 0
 fancy_180: x9 + x20 + z9_20 <= 2
 partition_181: - x2 - x18 + z2_18 <= 0
 fancy_181: x2 + x18 + z2_18 <= 2
 partition_182: - x2 - x19 + z2_19 <= 0
 fancy_182: x2 + x19 + z2_19 <= 2
 partition_183: - x2 - x12 + z2_12 <= 0
 fancy_183: x2 + x12 + z2_12 <= 2
 partition_184: - x2 - x13 + z2_13 <= 0
 fancy_184: x2 + x13 + z2_13 <= 2
 partition_185: - x2 - x10 + z2_10 <= 0
 fancy_185: x2 + x10 + z2_10 <= 2
 partition_186: - x2 - x11 + z2_11 <= 0
 fancy_186: x2 + x11 + z2_11 <= 2
 partition_187: - x2 - x16 + z2_16 <= 0
 fancy_187: x2 + x16 + z2_16 <= 2
 partition_188: - x2 - x17 + z2_17 <= 0
 fancy_188: x2 + x17 + z2_17 <= 2
 partition_189: - x2 - x14 + z2_14 <= 0
 fancy_189: x2 + x14 + z2_14 <= 2
 partition_190: - x2 - x15 + z2_15 <= 0
 fancy_190: x2 + x15 + z2_15 <= 2
 partition_191: - x10 - x12 + z10_12 <= 0
 fancy_191: x10 + x12 + z10_12 <= 2
 partition_192: - x12 - x13 + z12_13 <= 0
 fancy_192: x12 + x13 + z12_13 <= 2
 partition_193: - x10 - x13 + z10_13 <= 0
 fancy_193: x10 + x13 + z10_13 <= 2
 partition_194: - x7 - x20 + z7_20 <= 0
 fancy_194: x7 + x20 + z7_20 <= 2
 partition_195: - x12 - x16 + z12_16 <= 0
 fancy_195: x12 + x16 + z12_16 <= 2
 partition_196: - x13 - x14 + z13_14 <= 0
 fancy_196: x13 + x14 + z13_14 <= 2
 partition_197: - x12 - x17 + z12_17 <= 0
 fancy_197: x12 + x17 + z12_17 <= 2
 partition_198: - x11 - x19 + z11_19 <= 0
 fancy_198: x11 + x19 + z11_19 <= 2
 partition_199: - x11 - x18 + z11_18 <= 0
 fancy_199: x11 + x18 + z11_18 <= 2
 partition_200: - x12 - x14 + z12_14 <= 0
 fancy_200: x12 + x14 + z12_14 <= 2
 partition_201: - x1 - x20 + z1_20 <= 0
 fancy_201: x1 + x20 + z1_20 <= 2
 partition_202: - x7 - x10 + z7_10 <= 0
 fancy_202: x7 + x10 + z7_10 <= 2
 partition_203: - x11 - x13 + z11_13 <= 0
 fancy_203: x11 + x13 + z11_13 <= 2
 partition_204: - x11 - x12 + z11_12 <= 0
 fancy_204: x11 + x12 + z11_12 <= 2
 partition_205: - x6 - x20 + z6_20 <= 0
 fancy_205: x6 + x20 + z6_20 <= 2
 partition_206: - x11 - x17 + z11_17 <= 0
 fancy_206: x11 + x17 + z11_17 <= 2
 partition_207: - x11 - x16 + z11_16 <= 0
 fancy_207: x11 + x16 + z11_16 <= 2
 partition_208: - x11 - x15 + z11_15 <= 0
 fancy_208: x11 + x15 + z11_15 <= 2
 partition_209: - x11 - x14 + z11_14 <= 0
 fancy_209: x11 + x14 + z11_14 <= 2
Bounds
 x0 <= 1
 x1 <= 1
 x2 <= 1
 x3 <= 1
 x4 <= 1
 x5 <= 1
 x6 <= 1
 x7 <= 1
 x8 <= 1
 x9 <= 1
 x10 <= 1
 x11 <= 1
 x12 <= 1
 x13 <= 1
 x14 <= 1
 x15 <= 1
 x16 <= 1
 x17 <= 1
 x18 <= 1
 x19 <= 1
 x20 <= 1
 z0_13 <= 1
 z0_2 <= 1
 z0_12 <= 1
 z0_1 <= 1
 z0_8 <= 1
 z0_14 <= 1
 z0_17 <= 1
 z0_4 <= 1
 z0_20 <= 1
 z0_9 <= 1
 z0_15 <= 1
 z0_16 <= 1
 z0_19 <= 1
 z0_18 <= 1
 z0_10 <= 1
 z0_5 <= 1
 z0_7 <= 1
 z0_6 <= 1
 z0_3 <= 1
 z0_11 <= 1
 z1_8 <= 1
 z1_4 <= 1
 z1_7 <= 1
 z1_15 <= 1
 z1_6 <= 1
 z1_5 <= 1
 z1_18 <= 1
 z1_16 <= 1
 z1_11 <= 1
 z1_3 <= 1
 z1_10 <= 1
 z1_12 <= 1
 z1_2 <= 1
 z1_9 <= 1
 z1_19 <= 1
 z1_17 <= 1
 z1_13 <= 1
 z1_20 <= 1
 z1_14 <= 1
 z2_16 <= 1
 z2_18 <= 1
 z2_12 <= 1
 z2_9 <= 1
 z2_10 <= 1
 z2_17 <= 1
 z2_3 <= 1
 z2_19 <= 1
 z2_13 <= 1
 z2_11 <= 1
 z2_6 <= 1
 z2_7 <= 1
 z2_20 <= 1
 z2_5 <= 1
 z2_14 <= 1
 z2_15 <= 1
 z2_4 <= 1
 z2_8 <= 1
 z3_13 <= 1
 z3_12 <= 1
 z3_8 <= 1
 z3_14 <= 1
 z3_4 <= 1
 z3_17 <= 1
 z3_20 <= 1
 z3_9 <= 1
 z3_16 <= 1
 z3_15 <= 1
 z3_18 <= 1
 z3_19 <= 1
 z3_5 <= 1
 z3_7 <= 1
 z3_6 <= 1
 z3_10 <= 1
 z3_11 <= 1
 z4_12 <= 1
 z4_13 <= 1
 z4_17 <= 1
 z4_16 <= 1
 z4_9 <= 1
 z4_14 <= 1
 z4_18 <= 1
 z4_20 <= 1
 z4_19 <= 1
 z4_10 <= 1
 z4_11 <= 1
 z4_6 <= 1
 z4_7 <= 1
 z4_5 <= 1
 z4_15 <= 1
 z4_8 <= 1
 z5_13 <= 1
 z5_12 <= 1
 z5_14 <= 1
 z5_17 <= 1
 z5_16 <= 1
 z5_9 <= 1
 z5_8 <= 1
 z5_20 <= 1
 z5_18 <= 1
 z5_19 <= 1
 z5_10 <= 1
 z5_15 <= 1
 z5_6 <= 1
 z5_11 <= 1
 z5_7 <= 1
 z6_13 <= 1
 z6_12 <= 1
 z6_14 <= 1
 z6_8 <= 1
 z6_17 <= 1
 z6_20 <= 1
 z6_9 <= 1
 z6_16 <= 1
 z6_18 <= 1
 z6_19 <= 1
 z6_15 <= 1
 z6_10 <= 1
 z6_11 <= 1
 z6_7 <= 1
 z7_13 <= 1
 z7_12 <= 1
 z7_14 <= 1
 z7_17 <= 1
 z7_8 <= 1
 z7_20 <= 1
 z7_9 <= 1
 z7_16 <= 1
 z7_18 <= 1
 z7_19 <= 1
 z7_10 <= 1
 z7_15 <= 1
 z7_11 <= 1
 z8_12 <= 1
 z8_13 <= 1
 z8_17 <= 1
 z8_16 <= 1
 z8_9 <= 1
 z8_18 <= 1
 z8_14 <= 1
 z8_10 <= 1
 z8_19 <= 1
 z8_20 <= 1
 z8_11 <= 1
 z8_15 <= 1
 z9_15 <= 1
 z9_11 <= 1
 z9_13 <= 1
 z9_12 <= 1
 z9_14 <= 1
 z9_10 <= 1
 z9_18 <= 1
 z9_20 <= 1
 z9_19 <= 1
 z9_16 <= 1
 z9_17 <= 1
 z10_13 <= 1
 z10_12 <= 1
 z10_14 <= 1
 z10_17 <= 1
 z10_15 <= 1
 z10_20 <= 1
 z10_16 <= 1
 z10_18 <= 1
 z10_19 <= 1
 z10_11 <= 1
 z11_13 <= 1
 z11_12 <= 1
 z11_14 <= 1
 z11_17 <= 1
 z11_20 <= 1
 z11_16 <= 1
 z11_15 <= 1
 z11_19 <= 1
 z11_18 <= 1
 z12_15 <= 1
 z12_18 <= 1
 z12_16 <= 1
 z12_19 <= 1
 z12_20 <= 1
 z12_14 <= 1
 z12_13 <= 1
 z12_17 <= 1
 z13_15 <= 1
 z13_18 <= 1
 z13_16 <= 1
 z13_19 <= 1
 z13_20 <= 1
 z13_17 <= 1
 z13_14 <= 1
 z14_15 <= 1
 z14_18 <= 1
 z14_16 <= 1
 z14_19 <= 1
 z14_17 <= 1
 z14_20 <= 1
 z15_17 <= 1
 z15_16 <= 1
 z15_19 <= 1
 z15_20 <= 1
 z15_18 <= 1
 z16_20 <= 1
 z16_17 <= 1
 z16_19 <= 1
 z16_18 <= 1
 z17_18 <= 1
 z17_19 <= 1
 z17_20 <= 1
 z18_20 <= 1
 z18_19 <= 1
 z19_20 <= 1
Generals
 x0 x1 x2 x3 x4 x5 x6 x7 x8 x9 x10 x11 x12 x13 x14 x15 x16 x17 x18 x19 x20
 z0_13 z0_2 z0_12 z0_1 z0_8 z0_14 z0_17 z0_4 z0_20 z0_9 z0_15 z0_16 z0_19
 z0_18 z0_10 z0_5 z0_7 z0_6 z0_3 z0_11 z1_8 z1_4 z1_7 z1_15 z1_6 z1_5 z1_18
 z1_16 z1_11 z1_3 z1_10 z1_12 z1_2 z1_9 z1_19 z1_17 z1_13 z1_20 z1_14 z2_16
 z2_18 z2_12 z2_9 z2_10 z2_17 z2_3 z2_19 z2_13 z2_11 z2_6 z2_7 z2_20 z2_5
 z2_14 z2_15 z2_4 z2_8 z3_13 z3_12 z3_8 z3_14 z3_4 z3_17 z3_20 z3_9 z3_16
 z3_15 z3_18 z3_19 z3_5 z3_7 z3_6 z3_10 z3_11 z4_12 z4_13 z4_17 z4_16 z4_9
 z4_14 z4_18 z4_20 z4_19 z4_10 z4_11 z4_6 z4_7 z4_5 z4_15 z4_8 z5_13 z5_12
 z5_14 z5_17 z5_16 z5_9 z5_8 z5_20 z5_18 z5_19 z5_10 z5_15 z5_6 z5_11 z5_7
 z6_13 z6_12 z6_14 z6_8 z6_17 z6_20 z6_9 z6_16 z6_18 z6_19 z6_15 z6_10
 z6_11 z6_7 z7_13 z7_12 z7_14 z7_17 z7_8 z7_20 z7_9 z7_16 z7_18 z7_19 z7_10
 z7_15 z7_11 z8_12 z8_13 z8_17 z8_16 z8_9 z8_18 z8_14 z8_10 z8_19 z8_20
 z8_11 z8_15 z9_15 z9_11 z9_13 z9_12 z9_14 z9_10 z9_18 z9_20 z9_19 z9_16
 z9_17 z10_13 z10_12 z10_14 z10_17 z10_15 z10_20 z10_16 z10_18 z10_19
 z10_11 z11_13 z11_12 z11_14 z11_17 z11_20 z11_16 z11_15 z11_19 z11_18
 z12_15 z12_18 z12_16 z12_19 z12_20 z12_14 z12_13 z12_17 z13_15 z13_18
 z13_16 z13_19 z13_20 z13_17 z13_14 z14_15 z14_18 z14_16 z14_19 z14_17
 z14_20 z15_17 z15_16 z15_19 z15_20 z15_18 z16_20 z16_17 z16_19 z16_18
 z17_18 z17_19 z17_20 z18_20 z18_19 z19_20
End
