bb.sol
# Objective value = 49892
x0 0
x1 1
x2 1
x3 0
x4 0
x5 0
x6 0
x7 0
x8 0
x9 1
x10 0
x11 0
x12 1
x13 1
x14 1
x15 0
x16 1
x17 1
x18 0
x19 1
x20 1
z0_13 1
z0_2 1
z0_12 1
z0_1 1
z0_8 0
z0_14 1
z0_17 1
z0_4 0
z0_20 1
z0_9 1
z0_15 0
z0_16 1
z0_19 1
z0_18 0
z0_10 0
z0_5 0
z0_7 0
z0_6 0
z0_3 0
z0_11 0
z1_8 1
z1_4 1
z1_7 1
z1_15 1
z1_6 1
z1_5 1
z1_18 1
z1_16 0
z1_11 1
z1_3 1
z1_10 1
z1_12 0
z1_2 0
z1_9 0
z1_19 0
z1_17 0
z1_13 0
z1_20 0
z1_14 0
z2_16 0
z2_18 1
z2_12 0
z2_9 0
z2_10 1
z2_17 0
z2_3 1
z2_19 0
z2_13 0
z2_11 1
z2_6 1
z2_7 1
z2_20 0
z2_5 1
z2_14 0
z2_15 1
z2_4 1
z2_8 1
z3_13 1
z3_12 1
z3_8 0
z3_14 1
z3_4 0
z3_17 1
z3_20 1
z3_9 1
z3_16 1
z3_15 0
z3_18 0
z3_19 1
z3_5 0
z3_7 0
z3_6 0
z3_10 0
z3_11 0
z4_12 1
z4_13 1
z4_17 1
z4_16 1
z4_9 1
z4_14 1
z4_18 0
z4_20 1
z4_19 1
z4_10 0
z4_11 0
z4_6 0
z4_7 0
z4_5 0
z4_15 0
z4_8 0
z5_13 1
z5_12 1
z5_14 1
z5_17 1
z5_16 1
z5_9 1
z5_8 0
z5_20 1
z5_18 0
z5_19 1
z5_10 0
z5_15 0
z5_6 0
z5_11 0
z5_7 0
z6_13 1
z6_12 1
z6_14 1
z6_8 0
z6_17 1
z6_20 1
z6_9 1
z6_16 1
z6_18 0
z6_19 1
z6_15 0
z6_10 0
z6_11 0
z6_7 0
z7_13 1
z7_12 1
z7_14 1
z7_17 1
z7_8 0
z7_20 1
z7_9 1
z7_16 1
z7_18 0
z7_19 1
z7_10 0
z7_15 0
z7_11 0
z8_12 1
z8_13 1
z8_17 1
z8_16 1
z8_9 1
z8_18 0
z8_14 1
z8_10 0
z8_19 1
z8_20 1
z8_11 0
z8_15 0
z9_15 1
z9_11 1
z9_13 0
z9_12 0
z9_14 0
z9_10 1
z9_18 1
z9_20 0
z9_19 0
z9_16 0
z9_17 0
z10_13 1
z10_12 1
z10_14 1
z10_17 1
z10_15 0
z10_20 1
z10_16 1
z10_18 0
z10_19 1
z10_11 0
z11_13 1
z11_12 1
z11_14 1
z11_17 1
z11_20 1
z11_16 1
z11_15 0
z11_19 1
z11_18 0
z12_15 1
z12_18 1
z12_16 0
z12_19 0
z12_20 0
z12_14 0
z12_13 0
z12_17 0
z13_15 1
z13_18 1
z13_16 0
z13_19 0
z13_20 0
z13_17 0
z13_14 0
z14_15 1
z14_18 1
z14_16 0
z14_19 0
z14_17 0
z14_20 0
z15_17 1
z15_16 1
z15_19 1
z15_20 1
z15_18 0
z16_20 0
z16_17 0
z16_19 0
z16_18 1
z17_18 1
z17_19 0
z17_20 0
z18_20 1
z18_19 1
z19_20 0
